c sursa https://logictools.org/prop.html
p cnf 15 60
3 -10 -7
4 -13 9
-13 13
4 8 -8
9 -6 4
-15 -11 8
-1 5 -14
-12 -14 -7
-13 -1 5
3 -12 13
-10 -7 5
10 3 8
4 -6 -2
6 -9 -14
-3 8
6 -12
-5 10 -2
-10 -5 6
7 9 15
1 2 -12
8 -2 9
-6 -3 4
-2 -3 8
-7 -6 3
5 11 3
4 -4 -7
-4 2 -5
6 -4 -12
-7 -8 -9
-14 13 -5
11 -3 -7
12 -2 9
-13 4 -8
12 8 -2
-12 -4 -9
-6 7 -1
-14 -1 11
6 10 12
10 -12 7
-5 10 3
15 -6 -4
4 6 12
-13 14
7 -12 1
-12 15 -8
-8 4 -9
-5 6
8 11 -1
1 -14 -2
6 13 -13
-9 11 10
5 -13 -5
6 9 -7
11 -12
-1 -12 2
-15 12 7
14 -7
-7 -11 14
-10 5 13
10 -8 13
